s td 16 75 90
b 1 1 2 4 5 6 7 8 10 11 12 13 15 16 17 18 19 20 21 22 26 27 28 30 31 32 33 34 35 36 37 38 39 40 41 42 43 45 46 47 48 49 50 52 53 54 55 56 57 59 60 61 62 64 67 69 70 72 73 74 75 76 77 78 79 80 81 82 83 84 85 86 87 88 89 90
b 2 3 4 5 7 8 10 12 13 16 17 18 20 21 22 27 30 31 32 37 38 42 43 45 46 48 50 53 55 56 57 61 64 67 69 73 74 75 76 77 78 80 81 83 84 85 86 87 88 90
b 3 1 2 4 5 6 7 8 10 11 12 13 15 16 17 18 19 20 21 22 26 27 28 30 31 32 33 34 35 36 37 38 39 40 41 42 43 45 46 47 48 49 50 52 53 54 55 56 57 59 60 61 62 63 64 69 70 72 73 74 75 76 77 78 79 80 81 82 83 84 85 86 87 88 89 90
b 4 1 2 4 5 6 7 8 9 10 11 12 13 15 16 17 18 19 20 21 22 26 27 28 30 31 32 33 34 36 37 38 39 40 41 42 43 45 46 47 48 49 50 52 53 54 55 56 57 59 60 61 62 63 64 69 70 72 73 74 75 76 77 78 79 80 81 82 83 84 85 86 87 88 89 90
b 5 1 2 4 5 6 7 8 9 10 11 12 13 15 16 17 18 20 21 22 26 27 28 30 31 32 33 34 36 37 38 39 40 41 43 44 45 46 47 48 49 50 52 53 54 55 56 57 59 60 61 62 63 64 69 70 72 73 74 75 76 77 78 79 80 81 82 83 84 85 86 87 88 89 90
b 6 1 2 4 5 6 7 8 9 10 11 12 13 15 16 17 18 20 21 22 26 27 28 30 31 32 33 34 36 37 38 39 40 41 43 44 45 46 47 48 49 50 52 53 54 55 56 57 58 60 62 63 64 69 70 72 73 74 75 76 77 78 79 80 81 82 83 84 85 86 87 88 89 90
b 7 1 2 4 5 6 7 8 10 11 12 13 15 16 17 20 21 22 26 27 28 30 31 32 33 34 36 37 38 39 40 41 44 45 46 47 49 50 52 53 54 55 56 57 58 60 63 64 66 70 72 73 74 76 77 78 79 80 82 83 84 85 86 87 88 89 90
b 8 2 5 7 8 11 13 15 16 20 22 26 27 28 30 31 32 33 34 37 39 47 49 50 53 54 57 58 60 63 64 65 66 72 73 74 76 78 79 80 82 84 85 86 87
b 9 5 11 12 13 14 15 16 18 22 27 28 33 35 37 39 40 41 43 45 46 53 55 56 61 63 64 72 75 76 81 83 84 86 88
b 10 1 2 4 5 6 7 8 10 11 12 13 15 16 17 18 19 20 21 22 24 26 27 28 30 31 32 33 34 35 36 37 38 39 40 41 42 43 46 47 48 49 50 52 53 54 55 56 57 59 60 61 62 64 67 69 70 72 73 74 75 76 77 78 79 80 81 82 83 84 85 86 87 88 89 90
b 11 1 2 4 5 6 7 8 10 11 12 13 15 16 17 18 19 20 21 23 24 26 27 28 30 31 32 33 34 35 36 37 38 39 40 41 42 43 46 47 48 49 50 52 53 54 55 56 57 59 60 61 62 64 67 69 70 72 73 74 75 76 77 78 79 80 81 82 83 84 85 86 87 89 90
b 12 1 2 4 5 6 7 8 11 12 13 15 16 17 18 19 20 21 23 24 26 27 28 29 30 31 32 33 34 35 36 37 38 39 40 41 43 46 47 48 49 50 52 53 54 55 56 57 60 61 62 64 67 69 70 72 73 74 75 76 77 78 79 80 81 82 83 84 85 86 87 89 90
b 13 1 2 4 5 6 8 11 12 13 15 16 17 18 19 20 21 23 24 25 26 27 28 29 30 31 32 33 34 35 36 37 38 39 40 41 43 46 47 48 49 52 53 54 55 56 57 60 61 62 64 67 69 70 72 73 74 75 76 77 78 79 80 81 82 83 84 85 86 87
b 14 1 2 4 5 6 11 12 17 18 19 20 21 23 24 25 26 27 28 29 30 31 32 33 35 36 37 38 39 40 41 46 47 48 49 53 54 55 61 62 64 67 68 70 73 74 75 76 77 78 79 80 81 82 83 84 85 86
b 15 4 5 6 12 17 18 21 24 25 26 27 28 30 31 33 35 36 38 46 47 48 49 53 61 62 64 68 70 71 73 78 79 80 81 82 83 84 85 86
b 16 1 2 4 5 8 10 11 12 13 16 17 21 23 24 26 27 28 31 33 36 39 40 41 49 50 51 53 54 55 57 59 61 67 69 70 72 74 76 77 79 84 85 86 87 89
1 2
1 3
1 10
3 4
3 9
4 5
5 6
6 7
7 8
10 11
11 12
11 16
12 13
13 14
14 15
